494627
534413
958169
251670
154980
339552
52916
866400
111406
380612
368965
768277
456155
875645
117849
402818
261057
900051
671620
241618
150853
758260
26094
774941
479335
826016
436316
458508
463173
642239
155785
192770
383207
792107
794005
628762
624112
41969
796171
966709
890712
261886
944311
941866
412874
903031
580970
376655
330779
184906
464519
18982
738512
691236
779438
383670
56275
773642
845426
967300
500201
18592
495951
516275
423569
45874
929851
993787
214420
75730
78880
513405
251898
27036
179566
785345
147316
390312
289532
556036
125804
757073
946440
112425
940541
680968
31942
169537
153943
496334
173583
363119
968841
826276
694305
128766
47519
775026
202254
964766